
Gurobi 10.0.1 (linux64) logging started Sun Nov 26 16:13:13 2023

Set parameter LogFile to value "ArtificialInstance/ExperimentV2/S4T3K2/BaRo/gurobi91.txt"
Gurobi Optimizer version 10.0.1 build v10.0.1rc0 (linux64)

CPU model: AMD EPYC 7H12 64-Core Processor, instruction set [SSE2|AVX|AVX2]
Thread count: 128 physical cores, 128 logical processors, using up to 32 threads

Academic license 656792 - for non-commercial use only - registered to b.___@student.vu.nl
Optimize a model with 2424 rows, 3601 columns and 12484 nonzeros
Model fingerprint: 0xe584510c
Variable types: 1 continuous, 3600 integer (3600 binary)
Coefficient statistics:
  Matrix range     [1e+00, 4e+01]
  Objective range  [1e+00, 2e+01]
  Bounds range     [1e+00, 1e+00]
  RHS range        [1e+00, 1e+00]
Found heuristic solution: objective 798.3423992
Presolve time: 0.02s
Presolved: 2424 rows, 3601 columns, 12484 nonzeros
Variable types: 1 continuous, 3600 integer (3600 binary)

Root relaxation: objective 4.634725e+01, 2989 iterations, 0.12 seconds (0.11 work units)

    Nodes    |    Current Node    |     Objective Bounds      |     Work
 Expl Unexpl |  Obj  Depth IntInf | Incumbent    BestBd   Gap | It/Node Time

     0     0   46.34725    0  455  798.34240   46.34725  94.2%     -    0s
H    0     0                     224.8802285   46.34725  79.4%     -    0s
H    0     0                      87.7466606   46.34725  47.2%     -    0s
     0     0   52.22011    0  733   87.74666   52.22011  40.5%     -    0s
H    0     0                      85.5091237   52.22011  38.9%     -    0s
     0     0   58.20123    0  593   85.50912   58.20123  31.9%     -    0s
H    0     0                      82.3249643   58.21378  29.3%     -    0s
     0     0   58.21378    0  652   82.32496   58.21378  29.3%     -    0s
     0     0   58.98227    0  748   82.32496   58.98227  28.4%     -    0s
H    0     0                      81.9319484   58.98227  28.0%     -    0s
     0     0   59.15777    0  735   81.93195   59.15777  27.8%     -    0s
     0     0   59.15777    0  734   81.93195   59.15777  27.8%     -    0s
H    0     0                      79.4433078   60.41483  24.0%     -    1s
     0     0   60.41483    0  789   79.44331   60.41483  24.0%     -    1s
     0     0   60.45088    0  826   79.44331   60.45088  23.9%     -    1s
     0     0   60.45671    0  817   79.44331   60.45671  23.9%     -    1s
     0     0   60.45671    0  819   79.44331   60.45671  23.9%     -    1s
H    0     0                      72.7765838   60.45671  16.9%     -    1s
     0     0   61.16010    0  758   72.77658   61.16010  16.0%     -    1s
     0     0   61.19857    0  735   72.77658   61.19857  15.9%     -    1s
     0     0   61.22859    0  708   72.77658   61.22859  15.9%     -    1s
     0     0   61.22956    0  727   72.77658   61.22956  15.9%     -    1s
     0     0   62.06114    0  719   72.77658   62.06114  14.7%     -    1s
     0     0   62.06370    0  713   72.77658   62.06370  14.7%     -    1s
     0     0   62.24456    0  700   72.77658   62.24456  14.5%     -    1s
     0     0   62.24567    0  732   72.77658   62.24567  14.5%     -    1s
     0     0   62.63495    0  768   72.77658   62.63495  13.9%     -    1s
     0     0   62.64649    0  772   72.77658   62.64649  13.9%     -    1s
     0     0   62.64649    0  772   72.77658   62.64649  13.9%     -    1s
H    0     0                      72.3407654   62.64649  13.4%     -    1s
     0     0   63.16580    0  805   72.34077   63.16580  12.7%     -    2s
H    0     0                      72.0510454   63.16580  12.3%     -    2s
     0     0   63.18602    0  794   72.05105   63.18602  12.3%     -    2s
     0     0   63.18751    0  780   72.05105   63.18751  12.3%     -    2s
     0     0   63.42563    0  777   72.05105   63.42563  12.0%     -    2s
     0     0   63.46161    0  770   72.05105   63.46161  11.9%     -    2s
     0     0   63.46231    0  769   72.05105   63.46231  11.9%     -    2s
     0     0   63.47944    0  768   72.05105   63.47944  11.9%     -    2s
     0     0   63.49816    0  780   72.05105   63.49816  11.9%     -    2s
     0     0   63.50694    0  790   72.05105   63.50694  11.9%     -    2s
     0     0   63.50996    0  790   72.05105   63.50996  11.9%     -    2s
H    0     0                      70.0728277   63.52174  9.35%     -    2s
     0     0   63.52174    0  806   70.07283   63.52174  9.35%     -    2s
     0     0   63.52174    0  770   70.07283   63.52174  9.35%     -    2s
     0     2   63.52174    0  758   70.07283   63.52174  9.35%     -    3s
   177    62   68.37667    9  642   70.07283   65.61815  6.36%   342    5s

Cutting planes:
  Gomory: 5
  Zero half: 152
  RLT: 83

Explored 449 nodes (113068 simplex iterations) in 5.58 seconds (4.83 work units)
Thread count was 32 (of 128 available processors)

Solution count 10: 70.0728 72.051 72.3408 ... 224.88

Optimal solution found (tolerance 1.00e-04)
Best objective 7.007282771707e+01, best bound 7.007282771707e+01, gap 0.0000%
